
Log started (V12.10.0.0) Fri Apr  2 11:16:38 2021

Warning, line 2067: Name 's169' does not exist.
Warning, line 2070: Name 's203' does not exist.
Warning, line 2071: Name 's106' does not exist.

Problem 'asset.lp' read.
Read time = 0.01 sec. (0.16 ticks)
New value for default parallel thread count: 1
New value for time limit in seconds: 400
Version identifier: 12.10.0.0 | 2019-11-26 | 843d4de
CPXPARAM_Threads                                 1
CPXPARAM_TimeLimit                               400
Found incumbent of value -0.827409 after 0.00 sec. (0.07 ticks)
Tried aggregator 4 times.
MIP Presolve eliminated 847 rows and 249 columns.
MIP Presolve modified 1142 coefficients.
Aggregator did 411 substitutions.
Reduced MIP has 511 rows, 527 columns, and 2270 nonzeros.
Reduced MIP has 476 binaries, 21 generals, 0 SOSs, and 0 indicators.
Presolve time = 0.01 sec. (6.15 ticks)
Probing fixed 199 vars, tightened 6 bounds.
Probing time = 0.00 sec. (1.21 ticks)
Cover probing fixed 0 vars, tightened 46 bounds.
Tried aggregator 1 time.
MIP Presolve eliminated 256 rows and 253 columns.
MIP Presolve modified 2 coefficients.
Reduced MIP has 255 rows, 271 columns, and 837 nonzeros.
Reduced MIP has 229 binaries, 12 generals, 0 SOSs, and 0 indicators.
Presolve time = 0.00 sec. (1.05 ticks)
Probing time = 0.00 sec. (0.36 ticks)
Tried aggregator 1 time.
Detecting symmetries...
MIP Presolve modified 2 coefficients.
Reduced MIP has 255 rows, 271 columns, and 837 nonzeros.
Reduced MIP has 229 binaries, 12 generals, 0 SOSs, and 0 indicators.
Presolve time = 0.00 sec. (0.60 ticks)
Probing time = 0.00 sec. (0.35 ticks)
Clique table members: 102.
MIP emphasis: balance optimality and feasibility.
MIP search method: dynamic search.
Parallel mode: none, using 1 thread.
Root relaxation solution time = 0.00 sec. (1.28 ticks)

        Nodes                                         Cuts/
   Node  Left     Objective  IInf  Best Integer    Best Bound    ItCnt     Gap

*     0+    0                           -0.8274      713.5377              --- 
      0     0      373.9087    43       -0.8274      373.9087      157     --- 
*     0+    0                          365.6768      373.9087             2.25%
      0     0      370.6845    43      365.6768      Cuts: 33      190    1.37%
      0     0      368.9878    43      365.6768      Cuts: 31      222    0.91%
Detecting symmetries...

Repeating presolve.
Tried aggregator 2 times.
MIP Presolve eliminated 138 rows and 157 columns.
MIP Presolve modified 7 coefficients.
Aggregator did 3 substitutions.
Reduced MIP has 114 rows, 111 columns, and 346 nonzeros.
Reduced MIP has 94 binaries, 4 generals, 0 SOSs, and 0 indicators.
Presolve time = 0.00 sec. (0.39 ticks)
Probing time = 0.00 sec. (0.10 ticks)
Cover probing fixed 0 vars, tightened 9 bounds.
Tried aggregator 1 time.
Detecting symmetries...
MIP Presolve eliminated 11 rows and 1 columns.
MIP Presolve modified 32 coefficients.
Reduced MIP has 103 rows, 110 columns, and 324 nonzeros.
Reduced MIP has 93 binaries, 4 generals, 0 SOSs, and 0 indicators.
Presolve time = 0.00 sec. (0.23 ticks)
Represolve time = 0.00 sec. (1.11 ticks)
Probing time = 0.00 sec. (0.09 ticks)
Clique table members: 37.
MIP emphasis: balance optimality and feasibility.
MIP search method: dynamic search.
Parallel mode: none, using 1 thread.
Root relaxation solution time = 0.00 sec. (0.53 ticks)

        Nodes                                         Cuts/
   Node  Left     Objective  IInf  Best Integer    Best Bound    ItCnt     Gap

*     0+    0                          365.6768      368.9878             0.91%
      0     0      368.9838    26      365.6768      368.9838      287    0.90%
      0     0      365.6794    26      365.6768   Flowcuts: 1      297    0.00%

Implied bound cuts applied:  5
Flow cuts applied:  2
Gomory fractional cuts applied:  2

Root node processing (before b&c):
  Real time             =    0.04 sec. (26.46 ticks)
Sequential b&c:
  Real time             =    0.00 sec. (0.00 ticks)
                          ------------
Total (root+branch&cut) =    0.04 sec. (26.46 ticks)

Solution pool: 2 solutions saved.

MIP - Integer optimal, tolerance (0.0001/1e-06):  Objective =  3.6567678271e+02
Current MIP best bound =  3.6567943234e+02 (gap = 0.00264963, 0.00%)
Solution time =    0.04 sec.  Iterations = 297  Nodes = 0 (1)
Deterministic time = 26.46 ticks  (727.91 ticks/sec)


Incumbent solution
Variable Name           Solution Value
F                           380.000000
f1                            0.863217
f2                           13.460000
y132                          1.000000
y241                          1.000000
y69                           1.000000
y185                          1.000000
y58                           1.000000
y74                           1.000000
y124                          1.000000
y217                          1.000000
y23                           1.000000
y17                           1.000000
s118                          4.180000
s178                          4.190000
s189                          4.200000
s246                          4.220000
s71                           4.240000
s143                          4.250000
s54                           4.290000
s132                          5.225715
s55                           4.310000
s16                           4.330000
s256                          4.380000
s35                           4.400000
s27                           4.410000
s241                          5.140743
s69                           5.342584
s209                          4.460000
s33                           4.470000
s50                           4.470000
s185                          5.203475
s95                           4.490000
s225                          4.650000
s58                           5.305786
s74                           5.347696
s2                            4.740000
s43                           4.760000
s183                          4.770000
s160                          4.780000
s139                          4.790000
s124                          5.301252
s214                          4.860000
s164                          5.190000
s217                          5.989875
s23                           5.995946
s218                          5.240000
s17                           5.855728
s67                           5.280000
x158x185x1                    1.000000
x168x69x1                     1.000000
x12x241x1                     1.000000
x116x17x1                     1.000000
x265x217x1                    1.000000
x262x58x1                     1.000000
x262x74x1                     1.000000
x158x185x2                    1.000000
x62x241x2                     1.000000
x62x58x2                      1.000000
x13x124x2                     1.000000
x168x74x2                     1.000000
x116x17x2                     1.000000
x212x124x3                    1.000000
x120x69x3                     1.000000
x13x132x3                     1.000000
x12x132x3                     1.000000
x265x217x3                    1.000000
x135x23x3                     2.000000
x132x0x3                      2.000000
x241x0x1                      1.000000
x241x0x2                      1.000000
x69x0x1                       1.000000
x69x0x3                       1.000000
x185x0x1                      1.000000
x185x0x2                      1.000000
x58x0x1                       1.000000
x58x0x2                       1.000000
x74x0x1                       1.000000
x74x0x2                       1.000000
x124x0x2                      1.000000
x124x0x3                      1.000000
x217x0x1                      1.000000
x217x0x3                      1.000000
x23x0x3                       2.000000
x17x0x1                       1.000000
x17x0x2                       1.000000
s212                          3.644807
z212z124z3                    1.000000
z212z23z3                     1.000000
s158                          3.783651
z158z185z1                    1.000000
z158z185z2                    1.000000
z158z164z1                    1.000000
z158z218z2                    1.000000
s62                           3.792391
z62z241z2                     1.000000
z62z58z2                      1.000000
z62z218z2                     1.000000
s120                          3.594230
z120z69z3                     1.000000
z120z23z3                     1.000000
s13                           3.894933
z13z132z3                     1.000000
z13z124z2                     1.000000
s168                          4.008033
z168z69z1                     1.000000
z168z74z2                     1.000000
s12                           3.864025
z12z132z3                     1.000000
z12z241z1                     1.000000
z12z164z1                     1.000000
z12z23z3                      1.000000
s116                          4.664293
z116z17z1                     1.000000
z116z17z2                     1.000000
s265                          4.832120
z265z217z1                    1.000000
z265z217z3                    1.000000
s135                          4.836255
z135z23z3                     1.000000
s262                          4.154484
z262z58z1                     1.000000
z262z74z1                     1.000000
All other variables in the range 1-1192 are 0.
